NAME: instance_1595
TYPE: TSP
DIMENSION: 20
EDGE_WEIGHT_TYPE: EUC_2D
NODE_COORD_SECTION
0 65.00 1.30
1 71.66 82.07
2 69.32 33.97
3 30.93 81.81
4 11.28 45.10
5 56.19 10.12
6 16.78 74.09
7 27.86 88.99
8 21.81 13.41
9 65.20 38.88
10 40.77 38.17
11 68.32 94.78
12 34.67 23.51
13 21.65 43.83
14 5.41 27.98
15 29.52 83.88
16 20.07 73.30
17 53.31 17.44
18 85.06 55.59
19 96.15 80.53
EOF
